1000
[150,151,152,153,156,157,158,159,160,161,162,163,164,165,166,167,168,169,170,171,173,174,175,176,177,178,181,182,183,184,185,187,188,189,191,192,193,194,195,196,198,200]
[1,1,2,3,2,3,3,6,2,3,3,3,5,5,4,2,5,3,1,2,1,1,3,2,6,2,2,3,4,4,3,2,1,2,4,2,1,5,2,4,1,6]
